!File created by the GAMESS Input Deck Generator Plugin for Avogadro
 $BASIS GBASIS=STO NGAUSS=3 $END
 $CONTRL SCFTYP=RHF RUNTYP=SADPOINT NZVAR=1 mult=1  ICHARG=0 $END
 $STATPT hssend=.t. OPTTOL=0.0005 NSTEP=50 $END
 $STATPT HESS=calc ihrep=5 $END
 $FORCE nvib=2 $END
 $ZMAT DLC=.t. auto=.t. nonvdw(1)=2,14,2,1,1,14,15,1 $END
!$ZMAT IFZMAT(1)=1,2,14,1,14,15 fvalue(1)=1.91,3.00 $END

 $DATA 
Title
C1
C     6.0     0.88684136    -1.07654440    -0.64042282
C     6.0     0.92032290     0.07352926     0.18376967
C     6.0    -0.52906734     0.29472989     0.68226701
C     6.0    -1.40301859    -0.32485604    -0.43827859
C     6.0    -0.51603281    -1.42381668    -1.08491361
H     1.0     1.77100849    -1.61935067    -0.96663088
H     1.0     1.70259881     0.14247259     0.93674117
H     1.0    -0.75158358     1.34516966     0.85320073
H     1.0    -0.66092473    -0.24144155     1.62068534
H     1.0    -1.64973271     0.43278760    -1.17783856
H     1.0    -2.33193684    -0.73175007    -0.04954188
H     1.0    -0.61138588    -1.46446097    -2.17118168
H     1.0    -0.76496297    -2.41847897    -0.70571280
Br    35.0     1.38277030     1.36281621    -1.14738834
Br    35.0     2.03034496     4.02725077    -2.36453104
 $END
