!File created by the GAMESS Input Deck Generator Plugin for Avogadro
 $BASIS GBASIS=STO NGAUSS=3 $END
 $CONTRL SCFTYP=RHF RUNTYP=OPTIMIZE NZVAR=1 mult=1  ICHARG=0 $END
 $STATPT hssend=.t. OPTTOL=0.0005 NSTEP=50 $END
 $STATPT HESS=calc ihrep=5 $END
 $FORCE nvib=2 $END
 $ZMAT DLC=.t. auto=.t. nonvdw(1)=2,14,15,14 $END
 $ZMAT IFZMAT(1)=1,2,14,1,14,15 fvalue(1)=1.91,3.00 $END

 $DATA 
Title
C1
C     6.0     0.90034    -0.84507     0.00560
C     6.0     0.96855     0.50788    -0.22164
C     6.0    -0.43722     1.04951     0.17993
C     6.0    -1.35421    -0.14497    -0.06112
C     6.0    -0.48678    -1.36898     0.19225
H     1.0     1.77321    -1.45890     0.19539
H     1.0     1.86690     0.96839     0.26215
H     1.0    -0.75409     1.92163    -0.40044
H     1.0    -0.42045     1.33271     1.23930
H     1.0    -1.70593    -0.14480    -1.10086
H     1.0    -2.23854    -0.12288     0.58346
H     1.0    -0.71625    -2.17949    -0.50498
H     1.0    -0.61128    -1.73524     1.21654
Br    35.0     1.44902     1.07256    -1.97861
Br    35.0     1.92261     4.02575    -1.78530
 $END
